\ Model idol-model
\ LP format - for model browsing. Use MPS format to capture full model detail.
\ Signature: 0xf56757f24473a948
Minimize
  560 y0 + 1125 y1 + 68 y2 + 328 y3 + 47 y4 + 122 y5 + 196 y6 + 41 y7
   + 25 y8 + 115 y9 + 82 y10 + 22 y11 + 631 y12 + 132 y13 + 420 y14
   + 86 y15 + 42 y16 + 103 y17 + 81 y18 + 26 y19 + 49 y20 + 316 y21
   + 72 y22 + 71 y23 + 49 y24 + 108 y25 + 116 y26 + 90 y27
Subject To
 KL0: 40 x0 + 91 x1 + 3 x2 + 12 x3 + 3 x4 + 18 x5 + 25 x6 + x7 + x8 + 8 x9
   + x10 + x11 + 49 x12 + 8 x13 + 21 x14 + 6 x15 + x16 + 5 x17 + 8 x18
   + x19 + 42 x21 + 6 x22 + 4 x23 + 8 x24 + 10 x26 + x27 <= 219
 KL1: 16 x0 + 92 x1 + 4 x2 + 18 x3 + 6 x4 + 8 x6 + 2 x7 + x8 + 6 x9 + 2 x10
   + x11 + 70 x12 + 9 x13 + 22 x14 + 4 x15 + x16 + 5 x17 + 6 x18 + 4 x20
   + 8 x21 + 4 x22 + 3 x23 + 10 x25 + 6 x27 <= 203
 KL2: 38 x0 + 39 x1 + 5 x2 + 40 x3 + 8 x4 + 12 x5 + 15 x6 + x8 + 20 x9
   + 3 x10 + 40 x12 + 6 x13 + 8 x14 + 6 x16 + 4 x17 + 4 x18 + x19 + 5 x20
   + 8 x21 + 2 x22 + 8 x23 + 20 x25 <= 208
 KF0: 38 y0 + 52 y1 + 7 y2 + 20 y3 + 3 y5 + 4 y6 + y7 + 2 y8 + 4 y9 + 6 y10
   + y11 + 18 y12 + 15 y13 + 38 y14 + 10 y15 + 4 y16 + 8 y17 + 3 y19
   + 6 y21 + y22 + 3 y23 + 3 y25 + 5 y26 + 4 y27 <= 180
 I0: x0 + y0 <= 1
 I1: x1 + y1 <= 1
 I2: x2 + y2 <= 1
 I3: x3 + y3 <= 1
 I4: x4 + y4 <= 1
 I5: x5 + y5 <= 1
 I6: x6 + y6 <= 1
 I7: x7 + y7 <= 1
 I8: x8 + y8 <= 1
 I9: x9 + y9 <= 1
 I10: x10 + y10 <= 1
 I11: x11 + y11 <= 1
 I12: x12 + y12 <= 1
 I13: x13 + y13 <= 1
 I14: x14 + y14 <= 1
 I15: x15 + y15 <= 1
 I16: x16 + y16 <= 1
 I17: x17 + y17 <= 1
 I18: x18 + y18 <= 1
 I19: x19 + y19 <= 1
 I20: x20 + y20 <= 1
 I21: x21 + y21 <= 1
 I22: x22 + y22 <= 1
 I23: x23 + y23 <= 1
 I24: x24 + y24 <= 1
 I25: x25 + y25 <= 1
 I26: x26 + y26 <= 1
 I27: x27 + y27 <= 1
 c_116: - 560 y0 - 1125 y1 - 68 y2 - 328 y3 - 47 y4 - 122 y5 - 196 y6
   - 41 y7 - 25 y8 - 115 y9 - 82 y10 - 22 y11 - 631 y12 - 132 y13 - 420 y14
   - 86 y15 - 42 y16 - 103 y17 - 81 y18 - 26 y19 - 49 y20 - 316 y21
   - 72 y22 - 71 y23 - 49 y24 - 108 y25 - 116 y26 - 90 y27 <= 0
Bounds
Binaries
 x0 x1 x2 x3 x4 x5 x6 x7 x8 x9 x10 x11 x12 x13 x14 x15 x16 x17 x18 x19 x20
 x21 x22 x23 x24 x25 x26 x27 y0 y1 y2 y3 y4 y5 y6 y7 y8 y9 y10 y11 y12 y13
 y14 y15 y16 y17 y18 y19 y20 y21 y22 y23 y24 y25 y26 y27
End
